147
100
1
11
18
23
16
1
19
12
2
13
20
2
14
21
10
4
11
1
3
6
1
8
13
1
25
1
20
23
1
4
1
24
14
4
2
7
25
7
4
24
23
18
3
18
11
22
11
9
4
4
1
1
23
15
16
12
7
1
5
14
7
21
16
3
5
24
6
15
14
18
19
23
8
6
12
24
23
16
15
20
4
5
11
7
17
4
12
5
3
11
2
6
1
21
3
3
4
2
12
3
16
19
13
3
11
4
22
2
22
1
2
5
17
11
13
20
17
7
11
4
20
5
21
6
1
6
9
3
5
8
14
7
6
4
4
7
5
20
11
3
3
7
3
12
6
14
4
